p tdp 16 83
1 3
1 4
1 5
1 6
1 8
1 9
1 10
1 13
1 14
1 15
1 16
2 3
2 4
2 5
2 7
2 9
2 14
2 15
2 16
3 4
3 6
3 7
3 8
3 9
3 10
3 11
3 12
3 13
3 16
4 5
4 6
4 7
4 9
4 12
4 14
4 15
5 6
5 7
5 8
5 9
5 10
5 11
5 14
5 15
5 16
6 7
6 8
6 10
6 11
6 12
6 16
7 8
7 12
7 13
7 14
7 15
7 16
8 9
8 10
8 11
8 12
8 13
8 15
8 16
9 10
9 12
9 13
9 14
9 15
9 16
10 13
10 16
11 12
11 13
11 14
11 16
12 13
12 14
12 16
13 14
13 16
14 15
15 16
